c File: flat75_3_0.col
c
c SOURCE: Joseph Culberson (joe@cs.ualberta.ca)
c DESCRIPTION: Quasi-random coloring problem
c              generated with flatness = 0
c                             probability = 0.096
c                             known coloring = 3
c                             random seed = 1074
c              Creation Date:  Wed Feb 24 10:42:08 1999
c Maximum degree = 8 Minimum degree = 1
c COLOR VERIFICATION: Using the permuted order
c under simple greedy yields the specified
c coloring number
c Color = 3 specified partitions = 3
c p edge 75 180
c cnf created by edge2cnf
p cnf 225 840
-1 -2 0
-1 -3 0
-2 -3 0
1 2 3 0
-4 -5 0
-4 -6 0
-5 -6 0
4 5 6 0
-7 -8 0
-7 -9 0
-8 -9 0
7 8 9 0
-10 -11 0
-10 -12 0
-11 -12 0
10 11 12 0
-13 -14 0
-13 -15 0
-14 -15 0
13 14 15 0
-16 -17 0
-16 -18 0
-17 -18 0
16 17 18 0
-19 -20 0
-19 -21 0
-20 -21 0
19 20 21 0
-22 -23 0
-22 -24 0
-23 -24 0
22 23 24 0
-25 -26 0
-25 -27 0
-26 -27 0
25 26 27 0
-28 -29 0
-28 -30 0
-29 -30 0
28 29 30 0
-31 -32 0
-31 -33 0
-32 -33 0
31 32 33 0
-34 -35 0
-34 -36 0
-35 -36 0
34 35 36 0
-37 -38 0
-37 -39 0
-38 -39 0
37 38 39 0
-40 -41 0
-40 -42 0
-41 -42 0
40 41 42 0
-43 -44 0
-43 -45 0
-44 -45 0
43 44 45 0
-46 -47 0
-46 -48 0
-47 -48 0
46 47 48 0
-49 -50 0
-49 -51 0
-50 -51 0
49 50 51 0
-52 -53 0
-52 -54 0
-53 -54 0
52 53 54 0
-55 -56 0
-55 -57 0
-56 -57 0
55 56 57 0
-58 -59 0
-58 -60 0
-59 -60 0
58 59 60 0
-61 -62 0
-61 -63 0
-62 -63 0
61 62 63 0
-64 -65 0
-64 -66 0
-65 -66 0
64 65 66 0
-67 -68 0
-67 -69 0
-68 -69 0
67 68 69 0
-70 -71 0
-70 -72 0
-71 -72 0
70 71 72 0
-73 -74 0
-73 -75 0
-74 -75 0
73 74 75 0
-76 -77 0
-76 -78 0
-77 -78 0
76 77 78 0
-79 -80 0
-79 -81 0
-80 -81 0
79 80 81 0
-82 -83 0
-82 -84 0
-83 -84 0
82 83 84 0
-85 -86 0
-85 -87 0
-86 -87 0
85 86 87 0
-88 -89 0
-88 -90 0
-89 -90 0
88 89 90 0
-91 -92 0
-91 -93 0
-92 -93 0
91 92 93 0
-94 -95 0
-94 -96 0
-95 -96 0
94 95 96 0
-97 -98 0
-97 -99 0
-98 -99 0
97 98 99 0
-100 -101 0
-100 -102 0
-101 -102 0
100 101 102 0
-103 -104 0
-103 -105 0
-104 -105 0
103 104 105 0
-106 -107 0
-106 -108 0
-107 -108 0
106 107 108 0
-109 -110 0
-109 -111 0
-110 -111 0
109 110 111 0
-112 -113 0
-112 -114 0
-113 -114 0
112 113 114 0
-115 -116 0
-115 -117 0
-116 -117 0
115 116 117 0
-118 -119 0
-118 -120 0
-119 -120 0
118 119 120 0
-121 -122 0
-121 -123 0
-122 -123 0
121 122 123 0
-124 -125 0
-124 -126 0
-125 -126 0
124 125 126 0
-127 -128 0
-127 -129 0
-128 -129 0
127 128 129 0
-130 -131 0
-130 -132 0
-131 -132 0
130 131 132 0
-133 -134 0
-133 -135 0
-134 -135 0
133 134 135 0
-136 -137 0
-136 -138 0
-137 -138 0
136 137 138 0
-139 -140 0
-139 -141 0
-140 -141 0
139 140 141 0
-142 -143 0
-142 -144 0
-143 -144 0
142 143 144 0
-145 -146 0
-145 -147 0
-146 -147 0
145 146 147 0
-148 -149 0
-148 -150 0
-149 -150 0
148 149 150 0
-151 -152 0
-151 -153 0
-152 -153 0
151 152 153 0
-154 -155 0
-154 -156 0
-155 -156 0
154 155 156 0
-157 -158 0
-157 -159 0
-158 -159 0
157 158 159 0
-160 -161 0
-160 -162 0
-161 -162 0
160 161 162 0
-163 -164 0
-163 -165 0
-164 -165 0
163 164 165 0
-166 -167 0
-166 -168 0
-167 -168 0
166 167 168 0
-169 -170 0
-169 -171 0
-170 -171 0
169 170 171 0
-172 -173 0
-172 -174 0
-173 -174 0
172 173 174 0
-175 -176 0
-175 -177 0
-176 -177 0
175 176 177 0
-178 -179 0
-178 -180 0
-179 -180 0
178 179 180 0
-181 -182 0
-181 -183 0
-182 -183 0
181 182 183 0
-184 -185 0
-184 -186 0
-185 -186 0
184 185 186 0
-187 -188 0
-187 -189 0
-188 -189 0
187 188 189 0
-190 -191 0
-190 -192 0
-191 -192 0
190 191 192 0
-193 -194 0
-193 -195 0
-194 -195 0
193 194 195 0
-196 -197 0
-196 -198 0
-197 -198 0
196 197 198 0
-199 -200 0
-199 -201 0
-200 -201 0
199 200 201 0
-202 -203 0
-202 -204 0
-203 -204 0
202 203 204 0
-205 -206 0
-205 -207 0
-206 -207 0
205 206 207 0
-208 -209 0
-208 -210 0
-209 -210 0
208 209 210 0
-211 -212 0
-211 -213 0
-212 -213 0
211 212 213 0
-214 -215 0
-214 -216 0
-215 -216 0
214 215 216 0
-217 -218 0
-217 -219 0
-218 -219 0
217 218 219 0
-220 -221 0
-220 -222 0
-221 -222 0
220 221 222 0
-223 -224 0
-223 -225 0
-224 -225 0
223 224 225 0
-79 -1 0
-80 -2 0
-81 -3 0
-178 -1 0
-179 -2 0
-180 -3 0
-217 -1 0
-218 -2 0
-219 -3 0
-34 -4 0
-35 -5 0
-36 -6 0
-67 -4 0
-68 -5 0
-69 -6 0
-220 -4 0
-221 -5 0
-222 -6 0
-40 -7 0
-41 -8 0
-42 -9 0
-52 -7 0
-53 -8 0
-54 -9 0
-133 -7 0
-134 -8 0
-135 -9 0
-184 -7 0
-185 -8 0
-186 -9 0
-25 -10 0
-26 -11 0
-27 -12 0
-31 -10 0
-32 -11 0
-33 -12 0
-43 -10 0
-44 -11 0
-45 -12 0
-97 -10 0
-98 -11 0
-99 -12 0
-106 -10 0
-107 -11 0
-108 -12 0
-148 -13 0
-149 -14 0
-150 -15 0
-208 -13 0
-209 -14 0
-210 -15 0
-85 -16 0
-86 -17 0
-87 -18 0
-100 -16 0
-101 -17 0
-102 -18 0
-112 -16 0
-113 -17 0
-114 -18 0
-157 -16 0
-158 -17 0
-159 -18 0
-175 -16 0
-176 -17 0
-177 -18 0
-64 -19 0
-65 -20 0
-66 -21 0
-67 -19 0
-68 -20 0
-69 -21 0
-106 -19 0
-107 -20 0
-108 -21 0
-112 -19 0
-113 -20 0
-114 -21 0
-115 -19 0
-116 -20 0
-117 -21 0
-205 -19 0
-206 -20 0
-207 -21 0
-55 -22 0
-56 -23 0
-57 -24 0
-85 -22 0
-86 -23 0
-87 -24 0
-115 -22 0
-116 -23 0
-117 -24 0
-142 -22 0
-143 -23 0
-144 -24 0
-157 -22 0
-158 -23 0
-159 -24 0
-166 -22 0
-167 -23 0
-168 -24 0
-40 -25 0
-41 -26 0
-42 -27 0
-64 -25 0
-65 -26 0
-66 -27 0
-88 -25 0
-89 -26 0
-90 -27 0
-181 -25 0
-182 -26 0
-183 -27 0
-193 -25 0
-194 -26 0
-195 -27 0
-37 -28 0
-38 -29 0
-39 -30 0
-85 -28 0
-86 -29 0
-87 -30 0
-94 -28 0
-95 -29 0
-96 -30 0
-124 -28 0
-125 -29 0
-126 -30 0
-196 -28 0
-197 -29 0
-198 -30 0
-100 -31 0
-101 -32 0
-102 -33 0
-112 -31 0
-113 -32 0
-114 -33 0
-187 -31 0
-188 -32 0
-189 -33 0
-154 -34 0
-155 -35 0
-156 -36 0
-175 -34 0
-176 -35 0
-177 -36 0
-199 -34 0
-200 -35 0
-201 -36 0
-127 -37 0
-128 -38 0
-129 -39 0
-130 -37 0
-131 -38 0
-132 -39 0
-184 -37 0
-185 -38 0
-186 -39 0
-70 -40 0
-71 -41 0
-72 -42 0
-91 -40 0
-92 -41 0
-93 -42 0
-94 -40 0
-95 -41 0
-96 -42 0
-172 -40 0
-173 -41 0
-174 -42 0
-214 -40 0
-215 -41 0
-216 -42 0
-52 -43 0
-53 -44 0
-54 -45 0
-79 -43 0
-80 -44 0
-81 -45 0
-112 -43 0
-113 -44 0
-114 -45 0
-214 -43 0
-215 -44 0
-216 -45 0
-58 -46 0
-59 -47 0
-60 -48 0
-91 -46 0
-92 -47 0
-93 -48 0
-187 -46 0
-188 -47 0
-189 -48 0
-196 -46 0
-197 -47 0
-198 -48 0
-160 -49 0
-161 -50 0
-162 -51 0
-97 -52 0
-98 -53 0
-99 -54 0
-103 -52 0
-104 -53 0
-105 -54 0
-148 -52 0
-149 -53 0
-150 -54 0
-175 -52 0
-176 -53 0
-177 -54 0
-178 -52 0
-179 -53 0
-180 -54 0
-94 -55 0
-95 -56 0
-96 -57 0
-148 -55 0
-149 -56 0
-150 -57 0
-181 -55 0
-182 -56 0
-183 -57 0
-121 -58 0
-122 -59 0
-123 -60 0
-139 -58 0
-140 -59 0
-141 -60 0
-205 -58 0
-206 -59 0
-207 -60 0
-208 -58 0
-209 -59 0
-210 -60 0
-154 -61 0
-155 -62 0
-156 -63 0
-67 -64 0
-68 -65 0
-69 -66 0
-88 -64 0
-89 -65 0
-90 -66 0
-157 -64 0
-158 -65 0
-159 -66 0
-166 -64 0
-167 -65 0
-168 -66 0
-202 -64 0
-203 -65 0
-204 -66 0
-109 -67 0
-110 -68 0
-111 -69 0
-169 -67 0
-170 -68 0
-171 -69 0
-136 -70 0
-137 -71 0
-138 -72 0
-166 -70 0
-167 -71 0
-168 -72 0
-172 -70 0
-173 -71 0
-174 -72 0
-187 -70 0
-188 -71 0
-189 -72 0
-112 -73 0
-113 -74 0
-114 -75 0
-175 -73 0
-176 -74 0
-177 -75 0
-211 -73 0
-212 -74 0
-213 -75 0
-97 -76 0
-98 -77 0
-99 -78 0
-145 -76 0
-146 -77 0
-147 -78 0
-193 -76 0
-194 -77 0
-195 -78 0
-103 -79 0
-104 -80 0
-105 -81 0
-172 -79 0
-173 -80 0
-174 -81 0
-193 -79 0
-194 -80 0
-195 -81 0
-85 -82 0
-86 -83 0
-87 -84 0
-100 -82 0
-101 -83 0
-102 -84 0
-130 -82 0
-131 -83 0
-132 -84 0
-178 -82 0
-179 -83 0
-180 -84 0
-190 -82 0
-191 -83 0
-192 -84 0
-202 -82 0
-203 -83 0
-204 -84 0
-223 -85 0
-224 -86 0
-225 -87 0
-106 -88 0
-107 -89 0
-108 -90 0
-115 -88 0
-116 -89 0
-117 -90 0
-124 -88 0
-125 -89 0
-126 -90 0
-166 -88 0
-167 -89 0
-168 -90 0
-205 -88 0
-206 -89 0
-207 -90 0
-175 -91 0
-176 -92 0
-177 -93 0
-181 -91 0
-182 -92 0
-183 -93 0
-190 -91 0
-191 -92 0
-192 -93 0
-151 -94 0
-152 -95 0
-153 -96 0
-160 -94 0
-161 -95 0
-162 -96 0
-220 -94 0
-221 -95 0
-222 -96 0
-172 -97 0
-173 -98 0
-174 -99 0
-184 -97 0
-185 -98 0
-186 -99 0
-190 -97 0
-191 -98 0
-192 -99 0
-217 -97 0
-218 -98 0
-219 -99 0
-136 -103 0
-137 -104 0
-138 -105 0
-145 -103 0
-146 -104 0
-147 -105 0
-142 -106 0
-143 -107 0
-144 -108 0
-148 -106 0
-149 -107 0
-150 -108 0
-202 -106 0
-203 -107 0
-204 -108 0
-121 -109 0
-122 -110 0
-123 -111 0
-184 -109 0
-185 -110 0
-186 -111 0
-220 -109 0
-221 -110 0
-222 -111 0
-115 -112 0
-116 -113 0
-117 -114 0
-154 -112 0
-155 -113 0
-156 -114 0
-199 -112 0
-200 -113 0
-201 -114 0
-121 -115 0
-122 -116 0
-123 -117 0
-151 -115 0
-152 -116 0
-153 -117 0
-160 -115 0
-161 -116 0
-162 -117 0
-214 -115 0
-215 -116 0
-216 -117 0
-124 -118 0
-125 -119 0
-126 -120 0
-160 -118 0
-161 -119 0
-162 -120 0
-193 -118 0
-194 -119 0
-195 -120 0
-136 -121 0
-137 -122 0
-138 -123 0
-163 -121 0
-164 -122 0
-165 -123 0
-181 -121 0
-182 -122 0
-183 -123 0
-208 -121 0
-209 -122 0
-210 -123 0
-154 -124 0
-155 -125 0
-156 -126 0
-139 -127 0
-140 -128 0
-141 -129 0
-157 -127 0
-158 -128 0
-159 -129 0
-187 -127 0
-188 -128 0
-189 -129 0
-220 -127 0
-221 -128 0
-222 -129 0
-223 -127 0
-224 -128 0
-225 -129 0
-172 -133 0
-173 -134 0
-174 -135 0
-220 -133 0
-221 -134 0
-222 -135 0
-202 -139 0
-203 -140 0
-204 -141 0
-151 -142 0
-152 -143 0
-153 -144 0
-217 -142 0
-218 -143 0
-219 -144 0
-223 -142 0
-224 -143 0
-225 -144 0
-151 -145 0
-152 -146 0
-153 -147 0
-214 -145 0
-215 -146 0
-216 -147 0
-169 -154 0
-170 -155 0
-171 -156 0
-211 -157 0
-212 -158 0
-213 -159 0
-211 -160 0
-212 -161 0
-213 -162 0
-181 -163 0
-182 -164 0
-183 -165 0
-208 -166 0
-209 -167 0
-210 -168 0
-175 -169 0
-176 -170 0
-177 -171 0
-181 -169 0
-182 -170 0
-183 -171 0
-184 -172 0
-185 -173 0
-186 -174 0
-181 -175 0
-182 -176 0
-183 -177 0
-184 -175 0
-185 -176 0
-186 -177 0
-193 -184 0
-194 -185 0
-195 -186 0
-205 -184 0
-206 -185 0
-207 -186 0
-190 -187 0
-191 -188 0
-192 -189 0
-196 -187 0
-197 -188 0
-198 -189 0
-208 -190 0
-209 -191 0
-210 -192 0
-214 -193 0
-215 -194 0
-216 -195 0
-202 -196 0
-203 -197 0
-204 -198 0
-214 -199 0
-215 -200 0
-216 -201 0
-211 -202 0
-212 -203 0
-213 -204 0
-208 -205 0
-209 -206 0
-210 -207 0
-220 -211 0
-221 -212 0
-222 -213 0
-223 -217 0
-224 -218 0
-225 -219 0
